c status 12 1469274380997
c status 10 1469274380997
c status 9 1469274380998
s td 24 9 32
b 1 2 32 13 1
b 2 32 9 11 13 1
b 3 16 25 8 6
b 4 25 21 8 6 19
b 5 21 18 8 6 12 19
b 6 18 9 8 6 12 23 19
b 7 30 8 29 1
b 8 9 8 6 12 23 11 19 13 1
b 9 8 29 6 12 23 11 19 13 1
b 10 31 10 17 1
b 11 10 3 17 19 1
b 12 3 17 12 19 13 1
b 13 4 24 14 11
b 14 24 27 14 11 13
b 15 28 27 29 6
b 16 27 5 14 29 6 11 13
b 17 5 15 14 29 6 12 11 13
b 18 15 7 14 29 6 12 23 11 13
b 19 7 14 17 29 6 12 23 11 13
b 20 20 26 23 11
b 21 26 22 17 23 11
b 22 22 14 17 23 11 19
b 23 14 17 29 6 12 23 11 19 13
b 24 17 29 6 12 23 11 19 13 1
1 2
2 8
8 9
9 24
24 23
23 19
19 18
18 17
8 6
17 16
24 12
23 22
6 5
22 21
16 14
12 11
5 4
9 7
21 20
16 15
14 13
11 10
4 3
